presolving:
(round 1, fast)       526 del vars, 1268 del conss, 0 add conss, 750 chg bounds, 0 chg sides, 0 chg coeffs, 0 upgd conss, 0 impls, 4950 clqs
(round 2, fast)       963 del vars, 17673 del conss, 0 add conss, 750 chg bounds, 0 chg sides, 0 chg coeffs, 84 upgd conss, 0 impls, 4950 clqs
(round 3, fast)       1270 del vars, 17757 del conss, 0 add conss, 750 chg bounds, 115 chg sides, 168 chg coeffs, 84 upgd conss, 0 impls, 4950 clqs
   (0.4s) running MILP presolver
   (0.4s) MILP presolver (2 rounds): 0 aggregations, 0 fixings, 0 bound changes
(round 4, medium)     1270 del vars, 28407 del conss, 5700 add conss, 750 chg bounds, 115 chg sides, 168 chg coeffs, 84 upgd conss, 0 impls, 4950 clqs
(round 5, exhaustive) 1270 del vars, 28407 del conss, 5700 add conss, 750 chg bounds, 115 chg sides, 168 chg coeffs, 5784 upgd conss, 0 impls, 4950 clqs
   (0.7s) probing: 51/307 (16.6%) - 0 fixings, 0 aggregations, 0 implications, 0 bound changes
   (0.7s) probing aborted: 50/50 successive totally useless probings
   (0.8s) symmetry computation started: requiring (bin +, int -, cont +), (fixed: bin -, int +, cont -)
   (0.8s) no symmetry present
presolving (6 rounds: 6 fast, 3 medium, 2 exhaustive):
 1270 deleted vars, 28407 deleted constraints, 5700 added constraints, 750 tightened bounds, 0 added holes, 115 changed sides, 168 changed coefficients
 0 implications, 4950 cliques
presolved problem has 307 variables (307 bin, 0 int, 0 impl, 0 cont) and 5700 constraints
   4950 constraints of type <setppc>
    750 constraints of type <logicor>
Presolving Time: 0.80

 time | node  | left  |LP iter|LP it/n|mem/heur|mdpt |vars |cons |rows |cuts |sepa|confs|strbr|  dualbound   | primalbound  |  gap   | compl. 
t 0.9s|     1 |     0 |     0 |     - | trivial|   0 | 307 |5700 |   0 |   0 |  0 |   0 |   0 | 1.794000e+03 | 1.161872e+05 |6376.43%| unknown
p 0.9s|     1 |     0 |     0 |     - |   locks|   0 | 307 |5700 |5700 |   0 |  0 |   0 |   0 | 1.794000e+03 | 8.401835e+04 |4583.30%| unknown
i 0.9s|     1 |     0 |     0 |     - |  oneopt|   0 | 307 |5700 |5700 |   0 |  0 |   0 |   0 | 1.794000e+03 | 9.417835e+03 | 424.96%| unknown
  1.1s|     1 |     0 |   431 |     - |    80M |   0 | 307 |5700 |5700 |   0 |  0 |   0 |   0 | 4.193795e+03 | 9.417835e+03 | 124.57%| unknown
r 1.1s|     1 |     0 |   431 |     - |shifting|   0 | 307 |5700 |5700 |   0 |  0 |   0 |   0 | 4.193795e+03 | 9.367007e+03 | 123.35%| unknown
i 1.1s|     1 |     0 |   431 |     - |  oneopt|   0 | 307 |5700 |5700 |   0 |  0 |   0 |   0 | 4.193795e+03 | 7.085246e+03 |  68.95%| unknown
  1.6s|     1 |     0 |   845 |     - |    82M |   0 | 307 |5700 |5701 |   1 |  1 |   0 |   0 | 4.932422e+03 | 7.085246e+03 |  43.65%| unknown
d 2.4s|     1 |     0 |  2303 |     - |farkasdi|   0 | 307 |5700 |5701 |   0 |  3 |   0 |   0 | 4.932422e+03 | 6.396324e+03 |  29.68%| unknown
L 4.8s|     1 |     0 |  2303 |     - |    rens|   0 | 307 |5700 |5701 |   1 |  3 |   0 |   0 | 4.932422e+03 | 5.788435e+03 |  17.35%| unknown
  4.8s|     1 |     0 |  2303 |     - |    85M |   0 | 307 |5700 |5701 |   1 |  3 |   0 |   0 | 4.932422e+03 | 5.788435e+03 |  17.35%| unknown
  4.8s|     1 |     0 |  2303 |     - |    85M |   0 | 307 |5700 |3991 |   1 |  3 |   0 |   0 | 4.932422e+03 | 5.788435e+03 |  17.35%| unknown
(run 1, node 1) restarting after 39 global fixings of integer variables

(restart) converted 1 cuts from the global cut pool into linear constraints

presolving:
(round 1, fast)       39 del vars, 0 del conss, 0 add conss, 0 chg bounds, 0 chg sides, 2850 chg coeffs, 0 upgd conss, 0 impls, 3241 clqs
   (5.0s) running MILP presolver
   (5.0s) MILP presolver found nothing
presolving (2 rounds: 2 fast, 1 medium, 1 exhaustive):
 39 deleted vars, 0 deleted constraints, 0 added constraints, 0 tightened bounds, 0 added holes, 0 changed sides, 2850 changed coefficients
 0 implications, 3241 cliques
presolved problem has 268 variables (268 bin, 0 int, 0 impl, 0 cont) and 3991 constraints
   3241 constraints of type <setppc>
    750 constraints of type <logicor>
Presolving Time: 0.89
transformed 19/21 original solutions to the transformed problem space

 time | node  | left  |LP iter|LP it/n|mem/heur|mdpt |vars |cons |rows |cuts |sepa|confs|strbr|  dualbound   | primalbound  |  gap   | compl. 
  5.2s|     1 |     0 |  2869 |     - |    85M |   0 | 268 |3991 |3991 |   0 |  0 |   0 |   0 | 4.932422e+03 | 5.788435e+03 |  17.35%| unknown
  7.8s|     1 |     2 |  3995 |     - |    85M |   0 | 268 |3991 |3991 |   0 |  2 |   0 |  26 | 5.034104e+03 | 5.788435e+03 |  14.98%| unknown
 17.8s|   100 |    29 | 13130 | 117.2 |    89M |  18 | 268 |4125 |3991 |   0 |  0 | 134 | 464 | 5.188771e+03 | 5.788435e+03 |  11.56%|  25.86%
 20.8s|   200 |    51 | 21765 | 101.8 |   107M |  18 | 268 |4160 |3996 |  33 |  1 | 169 | 521 | 5.296817e+03 | 5.788435e+03 |   9.28%|  33.04%
 25.4s|   300 |    61 | 29117 |  92.4 |   116M |  18 | 268 |4237 |3995 |  75 |  1 | 246 | 600 | 5.332932e+03 | 5.788435e+03 |   8.54%|  35.21%
 29.6s|   400 |    87 | 39571 |  95.4 |   121M |  18 | 268 |4286 |3996 | 130 |  6 | 295 | 652 | 5.380475e+03 | 5.788435e+03 |   7.58%|  42.33%
 37.1s|   500 |   133 | 52892 | 103.0 |   122M |  18 | 268 |4392 |3995 | 196 |  1 | 403 | 768 | 5.453796e+03 | 5.788435e+03 |   6.14%|  49.15%
 39.7s|   600 |   157 | 59702 |  97.2 |   122M |  18 | 268 |4454 |3993 | 214 |  1 | 465 | 834 | 5.484470e+03 | 5.788435e+03 |   5.54%|  53.65%
 42.5s|   700 |   161 | 66453 |  92.9 |   123M |  19 | 268 |4523 |3991 | 223 |  0 | 535 | 924 | 5.534345e+03 | 5.788435e+03 |   4.59%|  60.25%
 45.5s|   800 |   151 | 73701 |  90.4 |   124M |  19 | 268 |4566 |3991 | 261 |  0 | 578 | 967 | 5.560324e+03 | 5.788435e+03 |   4.10%|  64.18%
 47.3s|   900 |   141 | 79058 |  86.3 |   124M |  21 | 268 |4601 |3997 | 278 |  1 | 614 |1010 | 5.585285e+03 | 5.788435e+03 |   3.64%|  69.21%
 48.3s|  1000 |   123 | 82657 |  81.2 |   124M |  21 | 268 |4609 |4001 | 281 |  0 | 622 |1024 | 5.590580e+03 | 5.788435e+03 |   3.54%|  72.11%
 50.3s|  1100 |    91 | 86661 |  77.5 |   124M |  21 | 268 |4641 |3991 | 300 |  0 | 657 |1058 | 5.601357e+03 | 5.788435e+03 |   3.34%|  75.56%
 52.1s|  1200 |    61 | 90410 |  74.2 |   124M |  21 | 268 |4650 |3997 | 318 |  0 | 667 |1068 | 5.620436e+03 | 5.788435e+03 |   2.99%|  83.37%

SCIP Status        : problem is solved [optimal solution found]
Solving Time (sec) : 52.80
Solving Nodes      : 1295 (total of 1296 nodes in 2 runs)
Primal Bound       : +5.78843480585018e+03 (427 solutions)
Dual Bound         : +5.78843480585018e+03
Gap                : 0.00 %
Solve Status: optimal
Solve Time: 52.81 seconds
